NAME 
ROWS
 N  OBJ
 L  R0      
 L  R1      
 L  R2      
 E  R3      
 E  R4      
 E  R5      
 E  R6      
 E  R7      
 E  R8      
 E  R9      
 E  R10     
 E  R11     
 E  R12     
 E  R13     
 E  R14     
 E  R15     
 E  R16     
 E  R17     
 E  R18     
 E  R19     
 E  R20     
 E  R21     
 E  R22     
 E  R23     
 E  R24     
 E  R25     
 E  R26     
 E  R27     
COLUMNS
    MARKER    'MARKER'                 'INTORG'
    I0(11)    OBJ       -196
    I0(11)    R0        183
    I0(11)    R1        -33
    I0(11)    R2        -120
    I0(11)    R4        12
    I0(11)    R5        3
    I0(11)    R7        15
    I0(11)    R9        16
    I0(11)    R10       11
    I0(11)    R11       17
    I0(11)    R12       6
    I0(11)    R27       1
    I1(11)    OBJ       -33
    I1(11)    R0        -78
    I1(11)    R1        64
    I1(11)    R2        -140
    I1(11)    R3        6
    I1(11)    R4        10
    I1(11)    R6        3
    I1(11)    R7        11
    I1(11)    R10       2
    I1(11)    R11       2
    I1(11)    R12       8
    I1(11)    R27       1
    I2(12)    OBJ       -1
    I2(12)    R0        -62
    I2(12)    R1        50
    I2(12)    R2        109
    I2(12)    R3        16
    I2(12)    R4        14
    I2(12)    R5        5
    I2(12)    R6        1
    I2(12)    R8        6
    I2(12)    R9        16
    I2(12)    R10       5
    I2(12)    R11       5
    I2(12)    R27       1
    I3(6)     OBJ       38
    I3(6)     R0        145
    I3(6)     R1        -147
    I3(6)     R2        -101
    I3(6)     R11       14
    I3(6)     R12       16
    I3(6)     R27       1
    I4(6)     OBJ       -9
    I4(6)     R0        153
    I4(6)     R1        168
    I4(6)     R2        183
    I4(6)     R3        7
    I4(6)     R8        13
    I4(6)     R27       1
    I5(10)    OBJ       -173
    I5(10)    R0        -43
    I5(10)    R1        1
    I5(10)    R2        -82
    I5(10)    R4        18
    I5(10)    R6        12
    I5(10)    R9        15
    I5(10)    R10       13
    I5(10)    R11       10
    I5(10)    R12       8
    I5(10)    R27       1
    I6(10)    OBJ       -131
    I6(10)    R0        187
    I6(10)    R1        161
    I6(10)    R2        197
    I6(10)    R4        16
    I6(10)    R5        13
    I6(10)    R6        7
    I6(10)    R8        19
    I6(10)    R9        7
    I6(10)    R10       13
    I6(10)    R27       1
    I7(9)     OBJ       -37
    I7(9)     R0        199
    I7(9)     R1        -99
    I7(9)     R2        -162
    I7(9)     R3        6
    I7(9)     R4        18
    I7(9)     R5        11
    I7(9)     R8        13
    I7(9)     R12       4
    I7(9)     R27       1
    I8(8)     OBJ       -190
    I8(8)     R0        158
    I8(8)     R1        26
    I8(8)     R2        -168
    I8(8)     R5        3
    I8(8)     R6        17
    I8(8)     R9        18
    I8(8)     R10       9
    I8(8)     R27       1
    I9(10)    OBJ       -124
    I9(10)    R0        68
    I9(10)    R1        -168
    I9(10)    R2        -82
    I9(10)    R3        4
    I9(10)    R5        3
    I9(10)    R8        1
    I9(10)    R9        15
    I9(10)    R11       14
    I9(10)    R12       -1
    I9(10)    R27       1
    MARKER    'MARKER'                 'INTEND'
    C10(14)   OBJ       -4
    C10(14)   R0        7
    C10(14)   R1        9
    C10(14)   R2        2
    C10(14)   R9        7
    C10(14)   R10       18
    C10(14)   R11       9
    C10(14)   R12       9
    C10(14)   R13       2
    C10(14)   R18       13
    C10(14)   R19       16
    C10(14)   R20       16
    C10(14)   R21       10
    C10(14)   R22       16
    C10(14)   R24       9
    C11(15)   OBJ       -8
    C11(15)   R0        -4
    C11(15)   R1        7
    C11(15)   R2        -7
    C11(15)   R4        -1
    C11(15)   R7        8
    C11(15)   R8        6
    C11(15)   R9        15
    C11(15)   R10       12
    C11(15)   R11       14
    C11(15)   R12       1
    C11(15)   R13       3
    C11(15)   R14       8
    C11(15)   R21       8
    C11(15)   R23       4
    C11(15)   R26       2
    C12(18)   OBJ       4
    C12(18)   R0        -10
    C12(18)   R1        -5
    C12(18)   R2        -6
    C12(18)   R4        10
    C12(18)   R5        17
    C12(18)   R7        19
    C12(18)   R8        13
    C12(18)   R9        11
    C12(18)   R10       9
    C12(18)   R12       -1
    C12(18)   R13       12
    C12(18)   R15       8
    C12(18)   R16       9
    C12(18)   R19       19
    C12(18)   R20       19
    C12(18)   R21       2
    C12(18)   R23       2
    C12(18)   R24       8
    C13(13)   OBJ       -10
    C13(13)   R0        3
    C13(13)   R1        8
    C13(13)   R2        -9
    C13(13)   R6        17
    C13(13)   R8        6
    C13(13)   R9        3
    C13(13)   R11       18
    C13(13)   R15       4
    C13(13)   R17       -1
    C13(13)   R19       15
    C13(13)   R21       7
    C13(13)   R23       -1
    C13(13)   R26       7
    C14(16)   OBJ       -7
    C14(16)   R0        2
    C14(16)   R1        4
    C14(16)   R2        -9
    C14(16)   R7        2
    C14(16)   R8        18
    C14(16)   R9        14
    C14(16)   R10       13
    C14(16)   R14       14
    C14(16)   R18       6
    C14(16)   R19       18
    C14(16)   R20       6
    C14(16)   R21       7
    C14(16)   R22       11
    C14(16)   R23       11
    C14(16)   R25       4
    C14(16)   R26       5
    C15(12)   OBJ       -6
    C15(12)   R0        -5
    C15(12)   R1        -7
    C15(12)   R2        -9
    C15(12)   R3        12
    C15(12)   R4        1
    C15(12)   R6        5
    C15(12)   R9        10
    C15(12)   R11       9
    C15(12)   R13       3
    C15(12)   R20       11
    C15(12)   R22       6
    C15(12)   R24       1
    C16(18)   OBJ       -7
    C16(18)   R0        5
    C16(18)   R2        5
    C16(18)   R3        -1
    C16(18)   R5        10
    C16(18)   R7        3
    C16(18)   R8        5
    C16(18)   R10       7
    C16(18)   R11       19
    C16(18)   R12       17
    C16(18)   R14       10
    C16(18)   R17       17
    C16(18)   R18       9
    C16(18)   R19       10
    C16(18)   R21       17
    C16(18)   R23       17
    C16(18)   R24       10
    C16(18)   R25       13
    C16(18)   R26       2
    C17(14)   OBJ       3
    C17(14)   R0        2
    C17(14)   R1        8
    C17(14)   R2        8
    C17(14)   R3        9
    C17(14)   R5        8
    C17(14)   R6        4
    C17(14)   R9        17
    C17(14)   R10       12
    C17(14)   R11       18
    C17(14)   R13       2
    C17(14)   R15       8
    C17(14)   R17       6
    C17(14)   R23       16
    C17(14)   R26       11
    C18(16)   OBJ       -10
    C18(16)   R0        2
    C18(16)   R1        -9
    C18(16)   R2        9
    C18(16)   R5        16
    C18(16)   R8        3
    C18(16)   R13       7
    C18(16)   R14       13
    C18(16)   R16       3
    C18(16)   R17       11
    C18(16)   R18       5
    C18(16)   R19       1
    C18(16)   R20       11
    C18(16)   R21       19
    C18(16)   R22       15
    C18(16)   R23       5
    C18(16)   R24       16
    C19(17)   OBJ       3
    C19(17)   R0        7
    C19(17)   R1        -10
    C19(17)   R2        -10
    C19(17)   R3        8
    C19(17)   R4        3
    C19(17)   R6        12
    C19(17)   R7        12
    C19(17)   R10       17
    C19(17)   R11       15
    C19(17)   R15       -1
    C19(17)   R16       4
    C19(17)   R17       12
    C19(17)   R18       1
    C19(17)   R19       18
    C19(17)   R20       10
    C19(17)   R21       -1
    C19(17)   R25       16
    C20(17)   OBJ       -8
    C20(17)   R0        5
    C20(17)   R1        -7
    C20(17)   R2        -5
    C20(17)   R3        15
    C20(17)   R4        11
    C20(17)   R5        -1
    C20(17)   R6        18
    C20(17)   R10       8
    C20(17)   R11       9
    C20(17)   R12       9
    C20(17)   R14       15
    C20(17)   R15       14
    C20(17)   R16       7
    C20(17)   R19       13
    C20(17)   R20       15
    C20(17)   R22       8
    C20(17)   R25       13
    C21(15)   OBJ       -5
    C21(15)   R0        7
    C21(15)   R1        -4
    C21(15)   R2        1
    C21(15)   R3        8
    C21(15)   R4        19
    C21(15)   R7        19
    C21(15)   R10       19
    C21(15)   R11       15
    C21(15)   R15       16
    C21(15)   R16       10
    C21(15)   R17       5
    C21(15)   R20       4
    C21(15)   R21       2
    C21(15)   R23       7
    C21(15)   R25       12
    C22(16)   OBJ       -5
    C22(16)   R0        -9
    C22(16)   R1        -10
    C22(16)   R2        -6
    C22(16)   R7        4
    C22(16)   R8        10
    C22(16)   R10       15
    C22(16)   R13       6
    C22(16)   R14       16
    C22(16)   R15       13
    C22(16)   R16       13
    C22(16)   R17       11
    C22(16)   R18       16
    C22(16)   R19       19
    C22(16)   R22       -1
    C22(16)   R23       11
    C22(16)   R26       10
    C23(17)   OBJ       9
    C23(17)   R0        -1
    C23(17)   R1        -3
    C23(17)   R4        7
    C23(17)   R5        15
    C23(17)   R6        13
    C23(17)   R7        3
    C23(17)   R8        10
    C23(17)   R10       18
    C23(17)   R11       6
    C23(17)   R12       16
    C23(17)   R14       1
    C23(17)   R15       18
    C23(17)   R19       18
    C23(17)   R21       2
    C23(17)   R22       8
    C23(17)   R24       8
    C23(17)   R26       9
    C24(12)   OBJ       9
    C24(12)   R0        -4
    C24(12)   R1        4
    C24(12)   R2        1
    C24(12)   R5        5
    C24(12)   R7        9
    C24(12)   R8        7
    C24(12)   R9        19
    C24(12)   R12       3
    C24(12)   R13       8
    C24(12)   R18       14
    C24(12)   R21       1
    C24(12)   R22       3
    C25(1)    R3        1
    C26(1)    R4        1
    C27(1)    R5        1
    C28(1)    R6        1
    C29(1)    R7        1
    C30(1)    R8        1
    C31(1)    R9        1
    C32(1)    R10       1
    C33(1)    R11       1
    C34(1)    R12       1
    C35(1)    R13       1
    C36(1)    R14       1
    C37(1)    R15       1
    C38(1)    R16       1
    C39(1)    R17       1
    C40(1)    R18       1
    C41(1)    R19       1
    C42(1)    R20       1
    C43(1)    R21       1
    C44(1)    R22       1
    C45(1)    R23       1
    C46(1)    R24       1
    C47(1)    R25       1
    C48(1)    R26       1
    C49(1)    R27       1
RHS
    RHS1      R0        2.9988243488687846e+02
    RHS1      R1        -2.7088469202419621e+01
    RHS1      R2        -3.8554144844733639e+02
    RHS1      R3        74
    RHS1      R4        81
    RHS1      R5        94
    RHS1      R6        98
    RHS1      R7        70
    RHS1      R8        67
    RHS1      R9        78
    RHS1      R10       65
    RHS1      R11       83
    RHS1      R12       78
    RHS1      R13       94
    RHS1      R14       50
    RHS1      R15       99
    RHS1      R16       84
    RHS1      R17       67
    RHS1      R18       51
    RHS1      R19       94
    RHS1      R20       52
    RHS1      R21       74
    RHS1      R22       63
    RHS1      R23       91
    RHS1      R24       54
    RHS1      R25       87
    RHS1      R26       58
    RHS1      R27       3
BOUNDS
 UP BND1      I0(11)    1
 UP BND1      I1(11)    1
 UP BND1      I2(12)    1
 UP BND1      I3(6)     1
 UP BND1      I4(6)     1
 UP BND1      I5(10)    1
 UP BND1      I6(10)    1
 UP BND1      I7(9)     1
 UP BND1      I8(8)     1
 UP BND1      I9(10)    1
ENDATA
